N = 8;
H = 6;
T = 2;

avail = array3d(1..N, 1..H, 1..T, [1, 3, 2, 7, 3, 4, 6, 9, 9, 10, 4, 7, 5, 2, 3, 7, 6, 0, 5, 7, 9, 1, 8, 9, 7, 1, 10, 7, 4, 6, 4, 6, 7, 2, 3, 3, 0, 4, 8, 1, 9, 2, 1, 4, 4, 0, 0, 3, 4, 8, 9, 5, 10, 5, 9, 4, 1, 2, 9, 9, 0, 4, 4, 1, 10, 10, 6, 7, 4, 4, 3, 3, 7, 6, 2, 2, 0, 8, 8, 10, 9, 0, 0, 10, 7, 5, 1, 2, 4, 1, 10, 3, 6, 6, 3, 5]);

r = array2d(1..H, 1..T, [3, 2, 3, 2, 2, 2, 2, 3, 2, 0, 2, 3]);
